Minimize
  x1 + x2 + x3
Subject To
e2:    x4 + x6 <= 400
e3:  - x4 + x5 + x7 <= 300
e4:  - x5 + x8 <= 100
e5: x1 + 833.333333333333 x4 + [ - x1 * x6 ]  <= 83333.3333333333
e6: - 1250 x4 + 1250 x5 + [ x2 * x4 - x2 * x7 ] <= 0
e7: - 2500 x5 + [ x3 * x5 - x3 * x8 ] <= -1250000

Bounds
x1 >= 100
x2 >= 1000
x3 >= 1000
x4 >= 10
x5 >= 10
x6 >= 10
x7 >= 10
x8 >= 10
x1 <= 10000
x2 <= 10000
x3 <= 10000
x4 <= 1000
x5 <= 1000
x6 <= 1000
x7 <= 1000
x8 <= 1000
End
